c Generated after 1 tries
c Graph with 200 nodes and 900 edges, Max edges:19900
c generated from an undirected graph
c to solve unweighted MaxCut
p cnf 200 1800
1 21 0
-1 -21 0
1 27 0
-1 -27 0
1 29 0
-1 -29 0
1 30 0
-1 -30 0
1 45 0
-1 -45 0
1 47 0
-1 -47 0
1 64 0
-1 -64 0
1 67 0
-1 -67 0
1 83 0
-1 -83 0
1 99 0
-1 -99 0
1 133 0
-1 -133 0
1 139 0
-1 -139 0
1 152 0
-1 -152 0
1 181 0
-1 -181 0
2 16 0
-2 -16 0
2 30 0
-2 -30 0
2 70 0
-2 -70 0
2 79 0
-2 -79 0
2 128 0
-2 -128 0
2 145 0
-2 -145 0
2 167 0
-2 -167 0
3 22 0
-3 -22 0
3 29 0
-3 -29 0
3 66 0
-3 -66 0
3 88 0
-3 -88 0
3 90 0
-3 -90 0
3 106 0
-3 -106 0
3 137 0
-3 -137 0
3 167 0
-3 -167 0
3 187 0
-3 -187 0
3 192 0
-3 -192 0
3 195 0
-3 -195 0
4 59 0
-4 -59 0
4 61 0
-4 -61 0
4 69 0
-4 -69 0
4 83 0
-4 -83 0
4 100 0
-4 -100 0
4 120 0
-4 -120 0
4 148 0
-4 -148 0
4 159 0
-4 -159 0
4 171 0
-4 -171 0
4 176 0
-4 -176 0
4 178 0
-4 -178 0
4 186 0
-4 -186 0
4 191 0
-4 -191 0
4 196 0
-4 -196 0
4 200 0
-4 -200 0
5 42 0
-5 -42 0
5 56 0
-5 -56 0
5 142 0
-5 -142 0
5 156 0
-5 -156 0
5 168 0
-5 -168 0
5 191 0
-5 -191 0
6 15 0
-6 -15 0
6 24 0
-6 -24 0
6 32 0
-6 -32 0
6 68 0
-6 -68 0
6 97 0
-6 -97 0
6 122 0
-6 -122 0
6 139 0
-6 -139 0
6 150 0
-6 -150 0
6 197 0
-6 -197 0
7 19 0
-7 -19 0
7 79 0
-7 -79 0
7 92 0
-7 -92 0
7 105 0
-7 -105 0
7 108 0
-7 -108 0
7 131 0
-7 -131 0
7 175 0
-7 -175 0
7 199 0
-7 -199 0
8 13 0
-8 -13 0
8 24 0
-8 -24 0
8 35 0
-8 -35 0
8 55 0
-8 -55 0
8 64 0
-8 -64 0
8 103 0
-8 -103 0
8 129 0
-8 -129 0
8 172 0
-8 -172 0
8 174 0
-8 -174 0
9 10 0
-9 -10 0
9 88 0
-9 -88 0
9 89 0
-9 -89 0
9 103 0
-9 -103 0
9 118 0
-9 -118 0
9 127 0
-9 -127 0
9 139 0
-9 -139 0
9 147 0
-9 -147 0
9 192 0
-9 -192 0
10 48 0
-10 -48 0
10 75 0
-10 -75 0
10 121 0
-10 -121 0
11 23 0
-11 -23 0
11 27 0
-11 -27 0
11 57 0
-11 -57 0
11 89 0
-11 -89 0
11 111 0
-11 -111 0
11 114 0
-11 -114 0
11 120 0
-11 -120 0
11 126 0
-11 -126 0
11 155 0
-11 -155 0
11 158 0
-11 -158 0
11 192 0
-11 -192 0
12 20 0
-12 -20 0
12 43 0
-12 -43 0
12 45 0
-12 -45 0
12 80 0
-12 -80 0
12 87 0
-12 -87 0
12 141 0
-12 -141 0
12 162 0
-12 -162 0
13 70 0
-13 -70 0
13 73 0
-13 -73 0
13 83 0
-13 -83 0
13 92 0
-13 -92 0
13 100 0
-13 -100 0
13 134 0
-13 -134 0
13 177 0
-13 -177 0
13 191 0
-13 -191 0
13 200 0
-13 -200 0
14 24 0
-14 -24 0
14 76 0
-14 -76 0
14 84 0
-14 -84 0
14 151 0
-14 -151 0
15 31 0
-15 -31 0
15 40 0
-15 -40 0
15 139 0
-15 -139 0
15 155 0
-15 -155 0
15 172 0
-15 -172 0
15 185 0
-15 -185 0
15 200 0
-15 -200 0
16 82 0
-16 -82 0
16 97 0
-16 -97 0
16 98 0
-16 -98 0
16 100 0
-16 -100 0
16 104 0
-16 -104 0
16 116 0
-16 -116 0
16 122 0
-16 -122 0
17 25 0
-17 -25 0
17 35 0
-17 -35 0
17 70 0
-17 -70 0
17 85 0
-17 -85 0
17 89 0
-17 -89 0
17 132 0
-17 -132 0
18 25 0
-18 -25 0
18 34 0
-18 -34 0
18 49 0
-18 -49 0
18 50 0
-18 -50 0
18 56 0
-18 -56 0
18 59 0
-18 -59 0
18 75 0
-18 -75 0
18 94 0
-18 -94 0
18 108 0
-18 -108 0
18 117 0
-18 -117 0
18 175 0
-18 -175 0
18 177 0
-18 -177 0
19 28 0
-19 -28 0
19 65 0
-19 -65 0
19 71 0
-19 -71 0
19 84 0
-19 -84 0
19 122 0
-19 -122 0
19 130 0
-19 -130 0
19 147 0
-19 -147 0
19 149 0
-19 -149 0
19 182 0
-19 -182 0
20 34 0
-20 -34 0
20 61 0
-20 -61 0
20 76 0
-20 -76 0
20 88 0
-20 -88 0
20 168 0
-20 -168 0
20 189 0
-20 -189 0
21 33 0
-21 -33 0
21 39 0
-21 -39 0
21 83 0
-21 -83 0
21 86 0
-21 -86 0
21 87 0
-21 -87 0
21 125 0
-21 -125 0
21 156 0
-21 -156 0
21 183 0
-21 -183 0
21 200 0
-21 -200 0
22 31 0
-22 -31 0
22 48 0
-22 -48 0
22 56 0
-22 -56 0
22 60 0
-22 -60 0
22 74 0
-22 -74 0
22 87 0
-22 -87 0
22 96 0
-22 -96 0
22 141 0
-22 -141 0
22 186 0
-22 -186 0
22 191 0
-22 -191 0
23 44 0
-23 -44 0
23 62 0
-23 -62 0
23 75 0
-23 -75 0
23 106 0
-23 -106 0
23 158 0
-23 -158 0
23 192 0
-23 -192 0
23 194 0
-23 -194 0
24 27 0
-24 -27 0
24 59 0
-24 -59 0
24 93 0
-24 -93 0
24 136 0
-24 -136 0
24 162 0
-24 -162 0
24 168 0
-24 -168 0
24 171 0
-24 -171 0
24 172 0
-24 -172 0
24 181 0
-24 -181 0
25 35 0
-25 -35 0
25 49 0
-25 -49 0
25 68 0
-25 -68 0
25 74 0
-25 -74 0
25 81 0
-25 -81 0
25 85 0
-25 -85 0
25 111 0
-25 -111 0
25 154 0
-25 -154 0
26 59 0
-26 -59 0
26 78 0
-26 -78 0
26 95 0
-26 -95 0
26 101 0
-26 -101 0
26 117 0
-26 -117 0
26 137 0
-26 -137 0
26 154 0
-26 -154 0
26 158 0
-26 -158 0
26 177 0
-26 -177 0
26 181 0
-26 -181 0
27 38 0
-27 -38 0
27 79 0
-27 -79 0
27 84 0
-27 -84 0
27 142 0
-27 -142 0
27 143 0
-27 -143 0
27 148 0
-27 -148 0
27 149 0
-27 -149 0
27 185 0
-27 -185 0
27 188 0
-27 -188 0
28 40 0
-28 -40 0
28 57 0
-28 -57 0
28 66 0
-28 -66 0
28 174 0
-28 -174 0
28 192 0
-28 -192 0
29 97 0
-29 -97 0
29 110 0
-29 -110 0
29 183 0
-29 -183 0
30 57 0
-30 -57 0
30 88 0
-30 -88 0
30 101 0
-30 -101 0
30 126 0
-30 -126 0
30 131 0
-30 -131 0
30 150 0
-30 -150 0
30 165 0
-30 -165 0
30 173 0
-30 -173 0
30 181 0
-30 -181 0
30 184 0
-30 -184 0
30 191 0
-30 -191 0
30 198 0
-30 -198 0
31 42 0
-31 -42 0
31 45 0
-31 -45 0
31 72 0
-31 -72 0
31 84 0
-31 -84 0
31 105 0
-31 -105 0
31 174 0
-31 -174 0
31 181 0
-31 -181 0
32 59 0
-32 -59 0
32 88 0
-32 -88 0
32 105 0
-32 -105 0
32 107 0
-32 -107 0
32 119 0
-32 -119 0
32 138 0
-32 -138 0
32 142 0
-32 -142 0
32 144 0
-32 -144 0
32 150 0
-32 -150 0
32 152 0
-32 -152 0
33 49 0
-33 -49 0
33 56 0
-33 -56 0
33 58 0
-33 -58 0
33 77 0
-33 -77 0
33 85 0
-33 -85 0
33 94 0
-33 -94 0
33 116 0
-33 -116 0
33 147 0
-33 -147 0
33 157 0
-33 -157 0
33 200 0
-33 -200 0
34 39 0
-34 -39 0
34 80 0
-34 -80 0
34 93 0
-34 -93 0
34 125 0
-34 -125 0
34 143 0
-34 -143 0
34 147 0
-34 -147 0
34 153 0
-34 -153 0
35 36 0
-35 -36 0
35 64 0
-35 -64 0
35 75 0
-35 -75 0
35 85 0
-35 -85 0
35 102 0
-35 -102 0
35 154 0
-35 -154 0
35 175 0
-35 -175 0
36 86 0
-36 -86 0
36 108 0
-36 -108 0
36 120 0
-36 -120 0
36 169 0
-36 -169 0
36 171 0
-36 -171 0
37 47 0
-37 -47 0
37 88 0
-37 -88 0
37 103 0
-37 -103 0
37 113 0
-37 -113 0
37 178 0
-37 -178 0
37 185 0
-37 -185 0
37 197 0
-37 -197 0
38 40 0
-38 -40 0
38 45 0
-38 -45 0
38 47 0
-38 -47 0
38 78 0
-38 -78 0
38 79 0
-38 -79 0
38 81 0
-38 -81 0
38 87 0
-38 -87 0
38 113 0
-38 -113 0
38 127 0
-38 -127 0
38 155 0
-38 -155 0
38 187 0
-38 -187 0
38 188 0
-38 -188 0
39 80 0
-39 -80 0
39 91 0
-39 -91 0
39 98 0
-39 -98 0
39 99 0
-39 -99 0
39 117 0
-39 -117 0
39 138 0
-39 -138 0
39 161 0
-39 -161 0
39 166 0
-39 -166 0
39 193 0
-39 -193 0
40 55 0
-40 -55 0
40 69 0
-40 -69 0
40 116 0
-40 -116 0
40 132 0
-40 -132 0
40 181 0
-40 -181 0
40 186 0
-40 -186 0
41 78 0
-41 -78 0
41 102 0
-41 -102 0
41 109 0
-41 -109 0
41 115 0
-41 -115 0
41 126 0
-41 -126 0
41 139 0
-41 -139 0
41 145 0
-41 -145 0
41 164 0
-41 -164 0
41 190 0
-41 -190 0
41 193 0
-41 -193 0
41 200 0
-41 -200 0
42 43 0
-42 -43 0
42 76 0
-42 -76 0
42 78 0
-42 -78 0
42 84 0
-42 -84 0
42 87 0
-42 -87 0
42 131 0
-42 -131 0
42 136 0
-42 -136 0
42 142 0
-42 -142 0
42 180 0
-42 -180 0
42 190 0
-42 -190 0
43 44 0
-43 -44 0
43 64 0
-43 -64 0
43 67 0
-43 -67 0
43 73 0
-43 -73 0
43 158 0
-43 -158 0
43 175 0
-43 -175 0
43 183 0
-43 -183 0
43 187 0
-43 -187 0
44 111 0
-44 -111 0
44 117 0
-44 -117 0
44 122 0
-44 -122 0
44 125 0
-44 -125 0
44 141 0
-44 -141 0
44 193 0
-44 -193 0
45 114 0
-45 -114 0
45 115 0
-45 -115 0
45 173 0
-45 -173 0
45 176 0
-45 -176 0
45 184 0
-45 -184 0
45 187 0
-45 -187 0
45 189 0
-45 -189 0
45 192 0
-45 -192 0
46 57 0
-46 -57 0
46 60 0
-46 -60 0
46 66 0
-46 -66 0
46 88 0
-46 -88 0
46 102 0
-46 -102 0
46 116 0
-46 -116 0
46 142 0
-46 -142 0
46 147 0
-46 -147 0
46 193 0
-46 -193 0
46 196 0
-46 -196 0
47 60 0
-47 -60 0
47 70 0
-47 -70 0
47 73 0
-47 -73 0
47 147 0
-47 -147 0
47 170 0
-47 -170 0
47 173 0
-47 -173 0
47 188 0
-47 -188 0
48 74 0
-48 -74 0
48 127 0
-48 -127 0
48 131 0
-48 -131 0
48 146 0
-48 -146 0
49 63 0
-49 -63 0
49 71 0
-49 -71 0
49 77 0
-49 -77 0
49 92 0
-49 -92 0
49 120 0
-49 -120 0
49 137 0
-49 -137 0
49 173 0
-49 -173 0
50 54 0
-50 -54 0
50 114 0
-50 -114 0
50 116 0
-50 -116 0
50 176 0
-50 -176 0
50 184 0
-50 -184 0
50 196 0
-50 -196 0
51 67 0
-51 -67 0
51 81 0
-51 -81 0
51 92 0
-51 -92 0
51 173 0
-51 -173 0
51 180 0
-51 -180 0
51 195 0
-51 -195 0
52 81 0
-52 -81 0
52 104 0
-52 -104 0
52 106 0
-52 -106 0
52 115 0
-52 -115 0
52 125 0
-52 -125 0
52 183 0
-52 -183 0
52 188 0
-52 -188 0
52 199 0
-52 -199 0
53 117 0
-53 -117 0
53 125 0
-53 -125 0
53 130 0
-53 -130 0
53 146 0
-53 -146 0
53 160 0
-53 -160 0
54 78 0
-54 -78 0
54 87 0
-54 -87 0
54 100 0
-54 -100 0
54 114 0
-54 -114 0
54 117 0
-54 -117 0
54 160 0
-54 -160 0
54 162 0
-54 -162 0
54 170 0
-54 -170 0
54 171 0
-54 -171 0
55 74 0
-55 -74 0
55 82 0
-55 -82 0
55 91 0
-55 -91 0
55 100 0
-55 -100 0
55 174 0
-55 -174 0
56 91 0
-56 -91 0
56 105 0
-56 -105 0
56 106 0
-56 -106 0
56 122 0
-56 -122 0
56 171 0
-56 -171 0
56 186 0
-56 -186 0
56 200 0
-56 -200 0
57 73 0
-57 -73 0
57 164 0
-57 -164 0
58 91 0
-58 -91 0
58 122 0
-58 -122 0
58 140 0
-58 -140 0
58 153 0
-58 -153 0
58 175 0
-58 -175 0
58 184 0
-58 -184 0
59 103 0
-59 -103 0
59 107 0
-59 -107 0
59 127 0
-59 -127 0
59 182 0
-59 -182 0
60 94 0
-60 -94 0
60 97 0
-60 -97 0
60 107 0
-60 -107 0
60 113 0
-60 -113 0
60 115 0
-60 -115 0
60 123 0
-60 -123 0
60 126 0
-60 -126 0
60 127 0
-60 -127 0
60 148 0
-60 -148 0
60 151 0
-60 -151 0
60 171 0
-60 -171 0
60 193 0
-60 -193 0
61 70 0
-61 -70 0
61 73 0
-61 -73 0
61 90 0
-61 -90 0
61 101 0
-61 -101 0
61 104 0
-61 -104 0
61 105 0
-61 -105 0
61 167 0
-61 -167 0
61 191 0
-61 -191 0
62 68 0
-62 -68 0
62 106 0
-62 -106 0
62 140 0
-62 -140 0
62 166 0
-62 -166 0
62 178 0
-62 -178 0
62 191 0
-62 -191 0
63 83 0
-63 -83 0
63 92 0
-63 -92 0
63 103 0
-63 -103 0
63 107 0
-63 -107 0
63 110 0
-63 -110 0
63 153 0
-63 -153 0
64 88 0
-64 -88 0
64 102 0
-64 -102 0
64 124 0
-64 -124 0
64 127 0
-64 -127 0
64 131 0
-64 -131 0
64 183 0
-64 -183 0
64 189 0
-64 -189 0
65 77 0
-65 -77 0
65 85 0
-65 -85 0
65 103 0
-65 -103 0
66 72 0
-66 -72 0
66 164 0
-66 -164 0
67 71 0
-67 -71 0
67 89 0
-67 -89 0
67 98 0
-67 -98 0
67 129 0
-67 -129 0
67 133 0
-67 -133 0
67 134 0
-67 -134 0
67 195 0
-67 -195 0
68 104 0
-68 -104 0
68 117 0
-68 -117 0
68 142 0
-68 -142 0
68 197 0
-68 -197 0
69 79 0
-69 -79 0
69 81 0
-69 -81 0
69 115 0
-69 -115 0
69 118 0
-69 -118 0
69 140 0
-69 -140 0
69 173 0
-69 -173 0
69 192 0
-69 -192 0
69 200 0
-69 -200 0
70 118 0
-70 -118 0
70 132 0
-70 -132 0
70 133 0
-70 -133 0
70 135 0
-70 -135 0
70 141 0
-70 -141 0
70 142 0
-70 -142 0
70 164 0
-70 -164 0
70 177 0
-70 -177 0
71 104 0
-71 -104 0
71 112 0
-71 -112 0
71 119 0
-71 -119 0
71 172 0
-71 -172 0
71 175 0
-71 -175 0
71 194 0
-71 -194 0
71 200 0
-71 -200 0
72 90 0
-72 -90 0
72 126 0
-72 -126 0
72 148 0
-72 -148 0
72 173 0
-72 -173 0
72 182 0
-72 -182 0
72 194 0
-72 -194 0
72 196 0
-72 -196 0
73 78 0
-73 -78 0
73 118 0
-73 -118 0
73 161 0
-73 -161 0
74 75 0
-74 -75 0
74 86 0
-74 -86 0
74 89 0
-74 -89 0
74 112 0
-74 -112 0
74 113 0
-74 -113 0
74 125 0
-74 -125 0
74 128 0
-74 -128 0
74 144 0
-74 -144 0
74 195 0
-74 -195 0
75 85 0
-75 -85 0
75 90 0
-75 -90 0
75 97 0
-75 -97 0
75 170 0
-75 -170 0
75 171 0
-75 -171 0
76 79 0
-76 -79 0
76 119 0
-76 -119 0
76 124 0
-76 -124 0
76 193 0
-76 -193 0
77 96 0
-77 -96 0
77 144 0
-77 -144 0
77 147 0
-77 -147 0
77 193 0
-77 -193 0
77 197 0
-77 -197 0
78 114 0
-78 -114 0
78 115 0
-78 -115 0
78 121 0
-78 -121 0
78 135 0
-78 -135 0
78 139 0
-78 -139 0
78 166 0
-78 -166 0
78 180 0
-78 -180 0
78 186 0
-78 -186 0
78 194 0
-78 -194 0
78 200 0
-78 -200 0
79 99 0
-79 -99 0
79 123 0
-79 -123 0
79 134 0
-79 -134 0
79 162 0
-79 -162 0
79 194 0
-79 -194 0
80 114 0
-80 -114 0
80 142 0
-80 -142 0
80 145 0
-80 -145 0
80 149 0
-80 -149 0
80 166 0
-80 -166 0
80 172 0
-80 -172 0
81 96 0
-81 -96 0
81 114 0
-81 -114 0
81 121 0
-81 -121 0
81 123 0
-81 -123 0
81 134 0
-81 -134 0
81 139 0
-81 -139 0
81 161 0
-81 -161 0
81 166 0
-81 -166 0
81 176 0
-81 -176 0
82 95 0
-82 -95 0
82 120 0
-82 -120 0
82 148 0
-82 -148 0
82 154 0
-82 -154 0
82 155 0
-82 -155 0
83 94 0
-83 -94 0
83 106 0
-83 -106 0
84 123 0
-84 -123 0
84 147 0
-84 -147 0
84 155 0
-84 -155 0
84 199 0
-84 -199 0
85 109 0
-85 -109 0
85 161 0
-85 -161 0
85 165 0
-85 -165 0
86 98 0
-86 -98 0
86 104 0
-86 -104 0
86 142 0
-86 -142 0
86 143 0
-86 -143 0
86 162 0
-86 -162 0
86 188 0
-86 -188 0
87 115 0
-87 -115 0
87 171 0
-87 -171 0
88 90 0
-88 -90 0
88 111 0
-88 -111 0
88 138 0
-88 -138 0
89 113 0
-89 -113 0
89 115 0
-89 -115 0
89 165 0
-89 -165 0
89 183 0
-89 -183 0
90 101 0
-90 -101 0
90 153 0
-90 -153 0
91 151 0
-91 -151 0
91 155 0
-91 -155 0
91 161 0
-91 -161 0
91 180 0
-91 -180 0
92 101 0
-92 -101 0
92 121 0
-92 -121 0
93 115 0
-93 -115 0
93 118 0
-93 -118 0
93 133 0
-93 -133 0
93 138 0
-93 -138 0
93 145 0
-93 -145 0
93 153 0
-93 -153 0
93 196 0
-93 -196 0
94 99 0
-94 -99 0
94 103 0
-94 -103 0
94 147 0
-94 -147 0
94 148 0
-94 -148 0
94 151 0
-94 -151 0
94 154 0
-94 -154 0
94 181 0
-94 -181 0
94 189 0
-94 -189 0
94 190 0
-94 -190 0
94 194 0
-94 -194 0
95 114 0
-95 -114 0
95 131 0
-95 -131 0
95 148 0
-95 -148 0
95 172 0
-95 -172 0
95 200 0
-95 -200 0
96 108 0
-96 -108 0
96 150 0
-96 -150 0
96 164 0
-96 -164 0
96 168 0
-96 -168 0
97 109 0
-97 -109 0
97 139 0
-97 -139 0
97 152 0
-97 -152 0
97 165 0
-97 -165 0
97 166 0
-97 -166 0
97 167 0
-97 -167 0
98 107 0
-98 -107 0
98 113 0
-98 -113 0
98 122 0
-98 -122 0
98 156 0
-98 -156 0
99 121 0
-99 -121 0
99 123 0
-99 -123 0
99 163 0
-99 -163 0
100 146 0
-100 -146 0
100 152 0
-100 -152 0
100 153 0
-100 -153 0
100 170 0
-100 -170 0
100 194 0
-100 -194 0
100 196 0
-100 -196 0
101 103 0
-101 -103 0
101 122 0
-101 -122 0
101 141 0
-101 -141 0
101 189 0
-101 -189 0
102 108 0
-102 -108 0
102 113 0
-102 -113 0
102 135 0
-102 -135 0
102 153 0
-102 -153 0
102 155 0
-102 -155 0
102 181 0
-102 -181 0
102 191 0
-102 -191 0
103 121 0
-103 -121 0
103 156 0
-103 -156 0
103 174 0
-103 -174 0
104 121 0
-104 -121 0
104 126 0
-104 -126 0
104 166 0
-104 -166 0
104 198 0
-104 -198 0
105 129 0
-105 -129 0
105 136 0
-105 -136 0
106 123 0
-106 -123 0
106 165 0
-106 -165 0
106 192 0
-106 -192 0
107 136 0
-107 -136 0
107 198 0
-107 -198 0
107 200 0
-107 -200 0
108 115 0
-108 -115 0
108 121 0
-108 -121 0
108 134 0
-108 -134 0
108 168 0
-108 -168 0
108 177 0
-108 -177 0
109 114 0
-109 -114 0
109 125 0
-109 -125 0
109 146 0
-109 -146 0
110 118 0
-110 -118 0
110 121 0
-110 -121 0
110 132 0
-110 -132 0
110 199 0
-110 -199 0
111 122 0
-111 -122 0
111 142 0
-111 -142 0
111 169 0
-111 -169 0
111 188 0
-111 -188 0
112 123 0
-112 -123 0
112 124 0
-112 -124 0
112 128 0
-112 -128 0
112 177 0
-112 -177 0
112 187 0
-112 -187 0
113 144 0
-113 -144 0
113 156 0
-113 -156 0
113 195 0
-113 -195 0
115 137 0
-115 -137 0
116 129 0
-116 -129 0
116 141 0
-116 -141 0
116 146 0
-116 -146 0
116 147 0
-116 -147 0
116 149 0
-116 -149 0
116 172 0
-116 -172 0
117 166 0
-117 -166 0
117 167 0
-117 -167 0
117 177 0
-117 -177 0
117 184 0
-117 -184 0
117 197 0
-117 -197 0
118 122 0
-118 -122 0
118 131 0
-118 -131 0
118 134 0
-118 -134 0
118 167 0
-118 -167 0
119 122 0
-119 -122 0
119 146 0
-119 -146 0
119 197 0
-119 -197 0
119 200 0
-119 -200 0
120 128 0
-120 -128 0
120 146 0
-120 -146 0
120 163 0
-120 -163 0
120 167 0
-120 -167 0
120 195 0
-120 -195 0
121 122 0
-121 -122 0
121 130 0
-121 -130 0
121 159 0
-121 -159 0
122 140 0
-122 -140 0
122 142 0
-122 -142 0
122 149 0
-122 -149 0
122 150 0
-122 -150 0
122 161 0
-122 -161 0
123 132 0
-123 -132 0
123 139 0
-123 -139 0
123 142 0
-123 -142 0
123 146 0
-123 -146 0
123 178 0
-123 -178 0
123 179 0
-123 -179 0
124 160 0
-124 -160 0
124 186 0
-124 -186 0
124 190 0
-124 -190 0
125 152 0
-125 -152 0
125 172 0
-125 -172 0
125 183 0
-125 -183 0
126 128 0
-126 -128 0
126 135 0
-126 -135 0
126 193 0
-126 -193 0
126 198 0
-126 -198 0
127 129 0
-127 -129 0
127 134 0
-127 -134 0
127 178 0
-127 -178 0
127 189 0
-127 -189 0
128 144 0
-128 -144 0
128 157 0
-128 -157 0
128 164 0
-128 -164 0
129 130 0
-129 -130 0
129 151 0
-129 -151 0
129 161 0
-129 -161 0
129 163 0
-129 -163 0
129 197 0
-129 -197 0
130 171 0
-130 -171 0
130 173 0
-130 -173 0
132 157 0
-132 -157 0
132 163 0
-132 -163 0
132 172 0
-132 -172 0
132 182 0
-132 -182 0
132 184 0
-132 -184 0
133 144 0
-133 -144 0
133 166 0
-133 -166 0
133 172 0
-133 -172 0
134 150 0
-134 -150 0
134 170 0
-134 -170 0
135 152 0
-135 -152 0
135 158 0
-135 -158 0
135 162 0
-135 -162 0
135 186 0
-135 -186 0
136 171 0
-136 -171 0
137 139 0
-137 -139 0
137 141 0
-137 -141 0
137 147 0
-137 -147 0
138 149 0
-138 -149 0
138 158 0
-138 -158 0
138 190 0
-138 -190 0
138 192 0
-138 -192 0
138 194 0
-138 -194 0
139 164 0
-139 -164 0
139 165 0
-139 -165 0
139 171 0
-139 -171 0
139 199 0
-139 -199 0
139 200 0
-139 -200 0
140 143 0
-140 -143 0
142 170 0
-142 -170 0
142 174 0
-142 -174 0
143 183 0
-143 -183 0
143 185 0
-143 -185 0
143 187 0
-143 -187 0
143 190 0
-143 -190 0
144 187 0
-144 -187 0
145 147 0
-145 -147 0
145 181 0
-145 -181 0
145 195 0
-145 -195 0
145 200 0
-145 -200 0
147 157 0
-147 -157 0
148 156 0
-148 -156 0
148 196 0
-148 -196 0
148 198 0
-148 -198 0
149 160 0
-149 -160 0
149 181 0
-149 -181 0
150 192 0
-150 -192 0
151 164 0
-151 -164 0
152 165 0
-152 -165 0
152 199 0
-152 -199 0
153 155 0
-153 -155 0
153 166 0
-153 -166 0
153 172 0
-153 -172 0
154 171 0
-154 -171 0
154 180 0
-154 -180 0
154 199 0
-154 -199 0
155 164 0
-155 -164 0
155 172 0
-155 -172 0
157 178 0
-157 -178 0
157 197 0
-157 -197 0
159 180 0
-159 -180 0
159 181 0
-159 -181 0
160 179 0
-160 -179 0
160 185 0
-160 -185 0
161 169 0
-161 -169 0
161 172 0
-161 -172 0
161 195 0
-161 -195 0
162 175 0
-162 -175 0
162 182 0
-162 -182 0
163 183 0
-163 -183 0
163 184 0
-163 -184 0
164 191 0
-164 -191 0
164 198 0
-164 -198 0
165 168 0
-165 -168 0
165 169 0
-165 -169 0
165 182 0
-165 -182 0
166 191 0
-166 -191 0
167 186 0
-167 -186 0
170 178 0
-170 -178 0
170 183 0
-170 -183 0
170 188 0
-170 -188 0
170 189 0
-170 -189 0
172 179 0
-172 -179 0
173 192 0
-173 -192 0
174 183 0
-174 -183 0
174 192 0
-174 -192 0
175 177 0
-175 -177 0
176 186 0
-176 -186 0
179 180 0
-179 -180 0
179 188 0
-179 -188 0
180 187 0
-180 -187 0
181 184 0
-181 -184 0
182 200 0
-182 -200 0
183 184 0
-183 -184 0
183 185 0
-183 -185 0
185 195 0
-185 -195 0
186 187 0
-186 -187 0
186 193 0
-186 -193 0
188 189 0
-188 -189 0
188 190 0
-188 -190 0
188 199 0
-188 -199 0
190 192 0
-190 -192 0
191 198 0
-191 -198 0
194 195 0
-194 -195 0
